25 40
1 2 4
1 6 1
2 3 5
2 7 5
3 4 5
3 8 5
4 5 5
4 9 1
5 10 3
6 7 3
6 11 3
7 8 1
7 12 4
8 9 3
8 13 4
9 10 5
9 14 3
10 15 4
11 12 5
11 16 4
12 13 5
12 17 1
13 14 5
13 18 2
14 15 1
14 19 1
15 20 3
16 17 2
16 21 2
17 18 5
17 22 4
18 19 5
18 23 5
19 20 1
19 24 3
20 25 5
21 22 5
22 23 1
23 24 1
24 25 5
